nNewSkillsPerPerson = 1;
nMaxJobs = 25;
sSkills = ["sk1","sk2","sk3","sk4","sk5","sk6","sk7","sk8","sk9","sk10","sk11","sk12","sk13","sk14","sk15","sk16","sk17","sk18","sk19","sk20","sk21","sk22","sk23","sk24","sk25","sk26","sk27","sk28","sk29","sk30","sk31","sk32","sk33","sk34","sk35","sk36","sk37","sk38","sk39","sk40","sk41","sk42","sk43","sk44","sk45","sk46","sk47","sk48","sk49","sk50","sk51","sk52","sk53","sk54","sk55","sk56","sk57","sk58","sk59","sk60","sk61","sk62","sk63","sk64","sk65","sk66","sk67","sk68","sk69","sk70","sk71","sk72","sk73","sk74","sk75","sk76","sk77","sk78","sk79","sk80","sk81","sk82","sk83",];

engineer_skills = [|0,0,0,0,0,0,0,0,0,0,0,0,1,1,1,1,1,1,1,1,1,1,1,1,1,1,1,1,1,1,1,0,0,0,0,0,0,0,0,0,0,0,0,0,0,0,0,0,0,0,0,0,0,0,0,0,0,0,0,0,0,0,0,0,0,0,1,0,0,0,0,0,0,0,0,0,0,0,0,0,0,0,0,|0,0,0,0,0,0,0,0,0,0,0,0,1,1,1,1,1,1,1,1,1,1,1,1,1,1,1,1,1,1,1,0,0,0,0,0,0,0,0,0,0,0,0,0,0,0,0,0,0,0,0,0,0,0,0,0,0,0,0,0,0,0,0,0,0,0,0,0,0,0,0,0,0,0,0,0,0,0,0,0,0,0,0,|0,0,0,0,0,0,0,0,0,0,0,0,1,1,1,1,1,1,1,1,1,1,1,1,1,1,1,1,1,1,1,0,0,0,0,0,0,0,1,0,0,0,0,0,0,0,1,0,0,0,0,0,0,0,0,0,0,0,0,0,0,0,0,0,0,0,0,0,0,0,0,0,0,0,0,0,0,0,0,0,0,0,0,|1,0,1,0,1,0,0,0,0,0,1,1,1,1,1,1,1,1,1,1,1,1,1,1,1,1,1,1,1,1,1,0,0,0,0,0,0,0,0,0,0,0,0,1,0,1,0,0,0,0,0,0,0,0,0,0,0,0,0,0,0,0,1,0,0,0,0,0,0,0,0,0,0,0,0,0,0,0,0,0,0,0,0,|0,0,1,0,0,0,0,0,0,0,0,0,1,1,1,1,1,1,1,1,1,1,1,1,1,1,1,1,1,1,1,0,0,0,0,0,0,0,0,0,0,0,0,0,0,0,0,0,0,0,0,0,0,0,0,0,0,0,0,0,0,0,1,0,0,0,0,0,0,0,0,0,0,0,0,0,0,0,0,0,0,0,0,|1,0,0,0,0,0,0,0,0,0,0,0,1,1,1,1,1,1,1,1,1,1,1,1,1,1,1,1,1,1,1,0,0,0,0,0,0,0,0,0,0,0,0,0,0,0,0,0,0,0,0,0,0,0,0,0,0,0,0,0,0,0,0,0,0,0,0,0,0,0,0,0,0,0,0,0,0,0,0,0,0,0,0,|0,0,0,0,0,0,0,0,0,0,0,0,1,1,1,1,1,1,1,1,1,1,1,1,1,1,1,1,1,1,1,0,1,0,0,0,0,0,0,0,0,0,0,0,0,0,0,0,0,0,0,1,0,0,0,0,1,0,0,0,0,0,0,0,0,0,0,0,0,0,0,0,0,0,0,0,0,0,0,0,0,0,0,|0,0,0,0,0,0,0,0,0,0,0,0,1,1,1,1,1,1,1,1,1,1,1,1,1,1,1,1,1,1,1,0,0,0,0,0,0,0,0,0,0,0,0,0,0,0,0,0,0,0,0,0,0,0,0,0,0,0,0,0,0,0,0,0,0,0,0,0,0,0,0,0,0,0,0,0,0,0,0,0,0,0,0,|0,0,0,0,0,0,0,0,0,0,0,0,1,1,1,1,1,1,1,1,1,1,1,1,1,1,1,1,1,1,1,0,0,0,0,0,0,0,0,0,0,0,0,0,0,0,0,0,0,0,0,0,0,0,0,0,0,0,0,0,0,0,0,0,0,0,0,0,0,0,0,0,0,0,0,0,0,0,0,0,0,0,0,|0,0,0,0,0,0,0,0,0,0,0,0,1,1,1,1,1,1,1,1,1,1,1,1,1,1,1,1,1,1,1,0,0,0,0,0,0,0,0,0,0,0,0,0,0,0,0,0,0,0,0,0,0,0,0,0,0,0,0,0,0,0,0,0,0,0,0,0,0,0,0,0,0,0,0,0,0,0,0,0,0,0,0,|0,0,0,0,0,0,0,0,0,0,0,0,1,1,1,1,1,1,1,1,1,1,1,1,1,1,1,1,1,1,1,0,0,0,0,0,0,0,0,0,0,0,0,0,0,0,0,0,0,0,0,0,0,0,0,0,0,0,0,0,0,0,0,0,0,0,0,0,0,0,0,0,0,0,0,0,0,0,0,0,0,0,0,|1,1,0,1,0,0,1,0,0,0,0,0,1,1,1,1,1,1,1,1,1,1,1,1,1,1,1,1,1,1,1,0,0,0,0,1,1,0,0,0,0,0,0,0,0,0,0,0,0,0,0,0,0,0,0,0,0,0,0,0,0,0,1,0,0,0,0,0,0,0,0,0,0,0,0,0,0,0,0,0,0,0,0,|1,1,0,1,0,0,0,0,0,1,0,0,1,1,1,1,1,1,1,1,1,1,1,1,1,1,1,1,1,1,1,0,0,0,0,1,1,0,0,0,1,0,0,0,1,0,1,0,0,0,0,0,0,0,0,0,0,0,0,0,0,0,1,0,0,0,0,0,0,0,0,0,0,0,0,0,0,0,0,0,0,0,0,|0,0,0,0,0,0,0,0,0,0,0,0,1,1,1,1,1,1,1,1,1,1,1,1,1,1,1,1,1,1,1,0,0,0,0,0,0,0,0,0,0,0,0,0,0,0,0,0,0,0,0,0,0,0,0,0,0,0,0,0,0,0,0,0,0,0,0,0,0,0,0,0,0,0,0,0,0,0,0,0,0,0,0,|1,1,1,0,0,0,1,1,1,0,0,0,1,1,1,1,1,1,1,1,1,1,1,1,1,1,1,1,1,1,1,0,0,1,1,0,1,0,0,1,0,0,1,0,0,0,0,0,0,0,0,0,0,0,0,0,0,0,0,0,0,0,0,0,0,0,0,0,0,0,0,1,0,0,0,0,0,0,0,0,0,0,0,|0,0,0,0,0,0,0,0,0,0,0,0,1,1,1,1,1,1,1,1,1,1,1,1,1,1,1,1,1,1,1,1,1,0,0,0,0,0,0,0,0,0,0,0,0,0,1,1,0,0,0,1,1,1,0,1,0,1,0,0,0,0,0,0,0,0,0,0,0,0,0,0,0,0,0,0,0,0,0,0,0,0,0,|1,0,1,0,0,0,1,1,1,1,0,0,1,1,1,1,1,1,1,1,1,1,1,1,1,1,1,1,1,1,1,0,0,0,1,1,1,0,0,1,0,0,1,1,0,1,0,0,0,0,0,0,0,0,0,0,0,0,0,0,0,0,1,0,0,0,0,0,0,0,0,0,0,0,0,0,0,0,0,0,0,0,0,|1,1,1,0,1,0,1,0,0,1,1,0,1,1,1,1,1,1,1,1,1,1,1,1,1,1,1,1,1,1,1,1,1,1,0,1,1,0,0,0,0,0,0,0,1,1,1,0,0,0,0,0,0,0,0,0,0,0,0,0,0,0,0,0,0,0,0,0,0,0,0,0,0,0,0,0,0,0,0,0,0,0,0,|1,0,1,0,0,0,1,1,1,1,1,0,1,1,1,1,1,1,1,1,1,1,1,1,1,1,1,1,1,1,1,0,0,0,1,0,1,0,0,1,0,0,0,0,1,0,0,0,0,0,0,0,0,0,0,0,0,0,0,0,0,0,1,0,0,0,0,0,0,0,0,0,0,0,0,0,0,0,0,0,0,0,0,|1,1,1,1,1,0,1,0,1,1,1,1,1,1,1,1,1,1,1,1,1,1,1,1,1,1,1,1,1,1,1,1,1,1,1,1,1,0,0,1,0,0,0,1,1,1,0,0,0,0,0,0,0,0,0,0,0,0,0,0,0,0,0,0,0,0,0,0,0,0,0,0,0,0,0,0,0,0,0,0,0,0,0,|0,1,0,0,0,0,0,1,1,0,0,0,1,1,1,1,1,1,1,1,1,1,1,1,1,1,1,1,1,1,1,1,1,0,0,0,0,0,0,0,0,1,0,0,0,0,0,0,0,0,0,1,0,0,0,0,0,1,0,0,0,0,0,0,0,0,0,0,0,0,0,1,0,0,0,0,0,0,0,0,0,0,0,|0,0,0,0,0,0,0,0,0,0,0,0,1,1,1,1,1,1,1,1,1,1,1,1,1,1,1,1,1,1,1,1,1,0,0,0,0,0,0,0,0,0,0,0,0,0,0,0,0,0,0,0,0,0,0,0,1,1,0,0,0,0,0,1,0,0,0,0,0,0,0,0,0,0,0,0,0,0,0,0,0,0,0,|0,0,0,0,0,0,0,0,0,0,0,0,1,1,1,1,1,1,1,1,1,1,1,1,1,1,1,1,1,1,1,0,1,0,0,0,0,0,0,0,0,0,0,0,0,0,1,1,1,1,0,1,1,0,0,0,0,0,0,0,0,0,0,0,0,0,0,0,0,0,0,0,0,0,0,0,0,0,0,0,0,0,0,|0,0,0,0,0,0,0,0,0,0,0,0,1,1,1,1,1,1,1,1,1,1,1,1,1,1,1,1,1,1,1,0,0,0,0,0,0,0,0,0,0,0,0,0,0,0,0,0,0,0,0,0,0,0,0,0,0,0,0,0,0,0,0,0,0,0,0,0,0,0,0,0,0,0,0,0,0,0,0,0,0,0,0,|1,1,1,0,0,0,0,1,0,0,0,0,1,1,1,1,1,1,1,1,1,1,1,1,1,1,1,1,1,1,1,0,0,1,0,0,0,0,0,0,0,0,0,0,0,0,0,0,0,0,0,0,0,0,0,0,0,0,0,0,0,0,0,0,0,0,0,0,0,0,0,1,1,0,0,0,0,0,0,0,0,0,0,|1,1,1,0,0,0,1,1,1,0,0,0,1,1,1,1,1,1,1,1,1,1,1,1,1,1,1,1,1,1,1,0,0,1,0,1,1,0,0,0,0,0,0,0,0,0,0,0,0,0,0,0,0,0,0,0,0,0,0,0,0,0,0,0,0,0,0,0,0,0,0,1,1,1,0,0,0,0,0,0,0,0,0,|1,0,1,0,0,0,0,0,0,0,0,0,1,1,1,1,1,1,1,1,1,1,1,1,1,1,1,1,1,1,1,0,0,1,0,0,0,0,0,0,0,0,0,0,0,0,0,0,0,0,0,0,0,0,0,0,0,0,0,0,0,0,0,0,0,0,0,0,0,0,0,1,0,0,0,0,0,0,0,0,0,0,0,|0,0,1,0,1,0,0,0,0,0,1,0,1,1,1,1,1,1,1,1,1,1,1,1,1,1,1,1,1,1,1,0,0,0,0,0,0,0,0,0,0,0,0,1,0,0,0,1,0,0,0,1,1,0,0,0,1,0,0,0,0,0,1,0,0,0,0,0,0,0,0,1,0,0,0,0,0,1,0,0,0,0,0,|0,0,1,0,1,0,0,0,0,0,1,0,1,1,1,1,1,1,1,1,1,1,1,1,1,1,1,1,1,1,1,0,0,0,0,0,0,0,0,0,0,0,0,1,0,0,0,0,0,0,0,0,0,0,0,0,0,0,0,0,0,0,1,0,0,0,0,0,0,0,0,0,0,0,0,0,0,0,0,0,0,0,0,|1,1,1,0,0,0,1,1,1,0,0,0,1,1,1,1,1,1,1,1,1,1,1,1,1,1,1,1,1,1,1,0,0,1,1,1,1,0,1,1,0,0,1,0,0,0,0,0,0,0,0,0,0,0,0,0,0,0,0,0,0,0,1,0,1,1,1,0,0,0,0,0,0,0,0,0,0,0,0,0,0,0,0,|0,1,1,0,0,0,1,1,1,0,0,0,1,1,1,1,1,1,1,1,1,1,1,1,1,1,1,1,1,1,1,0,0,0,1,1,1,0,0,1,0,0,0,0,0,0,0,0,0,0,0,0,0,0,0,0,0,0,0,0,0,0,0,0,0,0,0,0,0,0,0,0,0,0,0,0,0,0,0,0,0,0,0,|1,1,1,0,1,0,1,1,1,0,0,0,1,1,1,1,1,1,1,1,1,1,1,1,1,1,1,1,1,1,1,1,1,1,1,1,1,1,1,1,1,1,1,0,0,0,0,0,0,0,0,0,0,0,0,0,0,0,0,0,0,0,0,0,0,0,0,0,0,0,0,0,0,0,0,0,0,0,0,0,0,0,0,|1,1,1,0,1,1,1,0,0,1,0,0,1,1,1,1,1,1,1,1,1,1,1,1,1,1,1,1,1,1,1,1,1,0,0,0,0,0,0,0,0,0,0,0,1,0,0,1,1,1,1,1,1,0,0,0,0,0,0,0,0,0,0,0,0,0,0,0,0,0,0,0,0,1,1,0,0,0,0,0,0,0,0,|1,0,1,0,1,0,1,1,1,0,0,0,1,1,1,1,1,1,1,1,1,1,1,1,1,1,1,1,1,1,1,0,0,0,1,1,1,0,1,1,0,0,1,0,0,0,0,0,0,0,0,0,0,0,0,0,0,0,0,0,0,0,0,0,0,0,0,0,0,0,0,0,0,0,0,0,0,0,0,0,0,0,0,|0,1,1,1,1,0,1,1,1,1,0,0,1,1,1,1,1,1,1,1,1,1,1,1,1,1,1,1,1,1,1,1,1,1,1,0,1,0,1,1,0,0,1,0,0,0,0,0,0,0,0,0,0,0,0,0,0,0,0,0,0,0,0,0,0,0,0,0,0,0,0,0,0,0,0,0,0,0,0,0,0,0,0,|1,0,1,0,1,0,1,0,1,1,0,0,1,1,1,1,1,1,1,1,1,1,1,1,1,1,1,1,1,1,1,0,0,0,1,0,0,0,0,1,0,0,0,0,1,0,0,0,0,0,0,0,0,0,0,0,0,0,0,0,0,0,0,0,0,0,0,0,0,0,0,0,0,1,0,0,0,0,0,0,0,0,0,|1,1,1,1,1,1,1,1,1,1,1,0,1,1,1,1,1,1,1,1,1,1,1,1,1,1,1,1,1,1,1,1,1,0,1,0,0,0,0,1,0,0,0,1,0,1,0,0,0,0,0,0,0,0,0,0,0,0,0,0,0,0,0,1,0,0,0,0,0,0,0,0,0,0,0,0,0,0,0,0,0,0,0,|1,1,1,1,1,1,1,1,1,1,1,1,1,1,1,1,1,1,1,1,1,1,1,1,1,1,1,1,1,1,1,0,0,0,0,0,0,0,0,0,0,0,0,0,0,0,0,0,0,0,0,0,0,0,0,0,0,0,0,0,0,0,0,0,0,0,0,0,0,0,0,0,0,0,0,0,0,0,0,0,0,0,0,|0,0,0,0,0,0,0,0,0,0,0,0,1,1,1,1,1,1,1,1,1,1,1,1,1,1,1,1,1,1,1,0,0,0,0,0,0,0,0,0,0,0,0,0,0,0,0,0,0,0,0,0,0,0,0,0,0,0,0,0,0,0,0,0,1,0,1,0,0,0,0,0,0,0,0,0,0,0,0,0,0,0,0,|0,0,0,0,0,0,0,0,0,0,0,0,1,1,1,1,1,1,1,1,1,1,1,1,1,1,1,1,1,1,1,0,0,0,0,0,0,0,0,0,0,0,0,0,0,0,0,0,0,0,0,0,0,0,0,0,0,0,0,0,0,0,0,0,0,0,0,0,0,0,0,0,0,0,0,0,0,0,0,0,0,0,0,|1,1,0,0,0,0,1,1,0,0,0,0,1,1,1,1,1,1,1,1,1,1,1,1,1,1,1,1,1,1,1,0,0,1,0,0,1,0,0,0,0,0,0,0,0,0,0,0,0,0,0,0,0,0,0,0,0,0,0,0,0,0,0,0,0,0,1,0,0,1,1,0,1,1,0,0,0,0,1,0,0,0,0,|0,0,0,0,0,0,0,0,0,0,0,0,1,1,1,1,1,1,1,1,1,1,1,1,1,1,1,1,1,1,1,1,1,0,0,0,0,0,0,0,0,0,0,0,0,0,0,0,0,0,0,1,0,0,1,0,1,1,0,0,0,0,0,0,0,0,0,0,0,0,0,0,0,0,0,0,0,0,0,0,0,0,0,|0,0,0,0,0,0,0,0,0,0,0,0,1,1,1,1,1,1,1,1,1,1,1,1,1,1,1,1,1,1,1,0,0,0,0,0,0,0,0,0,0,0,0,0,0,0,0,0,0,0,0,0,0,0,0,0,0,0,0,0,0,0,0,0,0,0,0,0,0,0,0,0,0,0,0,0,0,0,0,0,0,0,0,|1,0,0,0,1,0,0,0,0,0,0,0,1,1,1,1,1,1,1,1,1,1,1,1,1,1,1,1,1,1,1,1,0,0,0,0,0,0,1,0,0,0,0,0,0,0,0,0,0,0,0,0,0,0,0,0,0,0,0,0,0,0,0,0,0,0,0,0,0,0,0,0,0,0,0,0,0,0,0,0,0,0,0,|0,0,0,0,0,0,0,0,0,0,0,0,1,1,1,1,1,1,1,1,1,1,1,1,1,1,1,1,1,1,1,0,0,0,0,0,0,0,0,0,0,0,0,0,0,0,0,0,0,0,0,0,0,0,0,0,0,0,0,0,0,0,0,0,0,0,0,0,0,0,0,0,0,0,0,0,0,0,0,0,0,0,0,|1,1,1,0,1,0,1,0,0,0,1,0,1,1,1,1,1,1,1,1,1,1,1,1,1,1,1,1,1,1,1,0,0,1,0,0,0,0,0,0,0,1,0,1,0,1,1,0,0,1,0,0,0,0,0,0,0,0,0,0,0,0,1,0,0,0,0,0,0,0,0,0,0,0,0,0,0,0,0,0,1,1,0,|0,0,1,0,1,0,0,0,0,1,1,0,1,1,1,1,1,1,1,1,1,1,1,1,1,1,1,1,1,1,1,0,0,0,0,0,0,0,0,0,0,0,0,1,1,1,0,0,0,0,0,0,0,0,0,0,0,0,0,0,0,0,0,0,0,0,0,0,0,0,0,1,0,0,0,0,0,0,0,0,0,0,0,|0,0,0,0,0,0,0,0,0,0,0,0,1,1,1,1,1,1,1,1,1,1,1,1,1,1,1,1,1,1,1,1,1,0,0,0,0,0,0,0,0,0,0,0,0,0,1,1,1,1,0,1,1,0,0,0,0,0,0,0,0,0,0,0,0,0,0,0,0,0,0,0,0,0,0,0,0,0,0,0,0,0,0,|0,0,0,0,0,0,0,0,0,0,0,0,1,1,1,1,1,1,1,1,1,1,1,1,1,1,1,1,1,1,1,1,1,0,0,0,0,0,0,0,0,0,0,0,0,0,1,1,0,1,1,1,1,1,0,0,0,0,0,0,0,0,0,0,0,0,0,0,0,0,0,0,0,0,0,0,0,0,1,0,0,0,1,|0,0,0,0,0,0,0,0,0,0,0,0,1,1,1,1,1,1,1,1,1,1,1,1,1,1,1,1,1,1,1,1,1,0,0,0,0,0,0,0,0,0,0,0,0,0,1,1,1,1,1,1,1,1,1,1,1,1,0,0,0,0,0,0,0,0,0,0,0,0,0,0,0,0,0,0,0,0,0,0,0,0,0,|0,0,1,0,0,0,0,0,0,1,0,0,1,1,1,1,1,1,1,1,1,1,1,1,1,1,1,1,1,1,1,1,1,0,0,0,0,0,0,0,0,0,0,1,0,1,1,1,1,1,0,1,1,0,1,0,1,0,1,1,1,1,1,1,0,0,0,0,0,0,0,0,0,0,0,0,0,0,0,0,0,0,0,|0,0,0,0,0,0,0,0,0,0,0,0,1,1,1,1,1,1,1,1,1,1,1,1,1,1,1,1,1,1,1,1,1,0,0,0,0,0,0,0,0,0,0,0,0,0,1,1,1,1,0,1,1,0,0,1,1,0,0,0,0,0,0,1,0,0,0,0,0,0,0,0,0,0,0,0,0,0,0,0,0,0,0,|1,0,0,0,0,0,0,0,0,0,0,0,1,1,1,1,1,1,1,1,1,1,1,1,1,1,1,1,1,1,1,0,0,0,0,1,1,0,0,0,0,0,0,0,0,0,0,1,1,1,0,0,1,0,0,0,0,0,0,0,0,0,0,0,0,0,0,0,0,0,0,0,0,0,0,0,0,0,0,0,0,0,0,|1,0,1,0,0,0,1,1,1,0,0,0,1,1,1,1,1,1,1,1,1,1,1,1,1,1,1,1,1,1,1,0,0,0,1,0,0,0,0,1,0,0,0,0,0,0,0,0,0,0,0,0,0,0,0,0,0,0,0,0,0,0,0,0,0,0,0,0,0,0,0,0,0,0,0,0,0,0,0,0,0,0,0,|0,0,1,0,0,0,0,0,0,1,1,1,1,1,1,1,1,1,1,1,1,1,1,1,1,1,1,1,1,1,1,0,0,0,0,0,0,0,0,0,0,0,0,1,0,1,0,0,0,0,0,0,0,0,0,0,0,0,0,0,0,0,1,0,1,0,1,0,0,0,0,0,0,0,0,1,1,0,0,0,0,0,0,|1,1,1,0,0,0,1,0,0,1,0,0,1,1,1,1,1,1,1,1,1,1,1,1,1,1,1,1,1,1,1,1,1,1,0,1,1,0,0,0,0,0,0,0,0,0,0,0,0,1,0,1,1,1,0,0,1,0,0,0,0,0,1,0,0,0,0,1,1,0,0,0,0,0,0,0,0,0,0,0,0,0,0,|1,1,1,0,0,0,0,0,0,1,0,0,1,1,1,1,1,1,1,1,1,1,1,1,1,1,1,1,1,1,1,1,1,1,0,1,1,0,0,0,0,0,0,0,0,0,1,1,0,1,0,0,1,1,0,0,1,0,0,0,0,0,1,0,1,0,1,0,0,1,1,0,0,0,0,0,0,0,0,0,0,0,0,|0,0,1,0,1,0,0,0,0,0,1,0,1,1,1,1,1,1,1,1,1,1,1,1,1,1,1,1,1,1,1,0,0,0,0,0,0,0,0,0,0,0,0,1,0,0,0,0,0,0,0,0,0,0,0,0,0,0,0,0,0,0,1,0,0,0,0,0,1,0,0,0,0,0,0,0,0,0,0,0,0,0,0,|1,1,0,1,0,0,0,0,0,1,0,0,1,1,1,1,1,1,1,1,1,1,1,1,1,1,1,1,1,1,1,1,1,0,0,0,0,0,0,0,0,0,0,0,1,0,0,0,0,0,0,1,0,0,0,0,0,0,0,0,0,0,0,0,0,0,0,0,0,0,0,0,0,0,0,0,0,0,0,0,0,0,0,|0,0,1,0,1,0,0,0,0,0,0,0,1,1,1,1,1,1,1,1,1,1,1,1,1,1,1,1,1,1,1,1,1,0,0,0,0,0,0,0,0,0,0,1,0,0,0,1,1,1,0,1,1,0,0,1,1,0,0,0,0,0,1,0,1,0,1,0,0,0,0,0,0,0,0,0,1,1,1,1,0,0,0,|1,0,1,0,0,0,1,1,1,0,0,0,1,1,1,1,1,1,1,1,1,1,1,1,1,1,1,1,1,1,1,0,0,0,0,1,1,0,0,0,0,0,0,1,0,1,0,0,0,0,0,0,0,0,0,0,0,0,0,0,0,0,1,0,0,0,0,0,0,0,0,0,0,0,0,0,0,0,0,0,0,0,0,|0,0,0,0,0,0,0,0,0,0,0,0,1,1,1,1,1,1,1,1,1,1,1,1,1,1,1,1,1,1,1,0,0,0,0,0,0,0,0,0,0,0,0,0,0,0,0,0,0,0,0,0,0,0,0,0,0,0,0,0,0,0,0,0,1,0,1,0,0,0,0,0,0,0,0,0,0,0,0,0,0,0,0,|0,0,0,0,0,0,0,0,0,0,0,0,1,1,1,1,1,1,1,1,1,1,1,1,1,1,1,1,1,1,1,0,1,0,0,0,0,0,0,0,0,0,0,0,0,0,1,1,0,1,0,0,1,0,0,0,1,0,0,0,0,0,0,0,0,0,0,0,0,0,0,0,0,0,0,0,0,0,0,0,0,0,0,|0,0,0,0,0,0,0,0,0,0,0,0,1,1,1,1,1,1,1,1,1,1,1,1,1,1,1,1,1,1,1,0,0,0,0,0,0,0,0,0,0,0,0,0,0,0,1,0,0,1,0,0,0,0,0,0,0,0,0,0,0,0,0,0,0,0,0,0,0,0,0,0,0,0,0,0,0,0,0,0,0,0,0,|0,0,0,0,1,0,0,1,0,0,0,0,1,1,1,1,1,1,1,1,1,1,1,1,1,1,1,1,1,1,1,0,0,0,0,0,0,0,0,0,0,0,0,0,0,1,0,0,0,0,0,0,0,0,0,0,0,0,0,0,0,0,0,0,0,0,0,0,0,0,0,0,0,0,0,0,0,0,0,0,0,0,0,|];

engineer_location = [0,3977,0,2572,3130,3073,0,0,0,0,0,0,0,3137,2066,6018,3178,3106,6107,3807,0,6069,2166,3977,3805,5073,3939,3066,2127,3133,6151,2040,2570,3912,4073,4573,5082,4115,0,3150,3030,6058,3180,0,0,4505,2213,6918,2137,3156,6149,4074,3204,3182,3128,5047,4006,6148,0,3152,2141,0,4512,0,0,];

jobs = [|69, 1, 5, 5010, 0|17, 1, 1, 4029, 0|44, 1, 2, 2067, 0|29, 1, 7, 5005, 0|37, 1, 14, 5031, 0|25, 1, 14, 5031, 0|33, 1, 1, 2114, 0|52, 1, 1, 2114, 0|33, 2, 11, 3175, 0|33, 1, 1, 3175, 0|48, 1, 1, 6104, 0|24, 27, 10, 3179, 0|23, 2, 1, 2116, 0|1, 2, 1, 2116, 0|68, 2, 4, 6090, 0|64, 2, 7, 6155, 0|32, 2, 12, 4102, 0|33, 2, 1, 6065, 0|48, 2, 2, 4680, 0|10, 2, 2, 5013, 0|9, 14, 6, 6009, 0|33, 2, 1, 4108, 0|69, 2, 1, 3064, 0|68, 3, 1, 4053, 0|65, 3, 14, 2031, 0|39, 3, 1, 4610, 0|9, 3, 2, 3052, 0|70, 50, 7, 2010, 0|29, 3, 2, 3026, 0|15, 3, 1, 6646, 0|68, 4, 1, 6208, 0|15, 4, 1, 6646, 0|52, 4, 3, 6109, 0|1, 5, 1, 6009, 0|68, 5, 1, 3030, 0|7, 5, 2, 4014, 0|76, 5, 1, 2609, 0|29, 5, 1, 2115, 0|78, 5, 1, 2115, 0|15, 5, 1, 4719, 0|68, 5, 1, 4068, 0|26, 5, 14, 3175, 0|2, 5, 2, 3083, 0|32, 5, 1, 2066, 0|53, 5, 9, 2234, 0|68, 5, 1, 4102, 0|9, 15, 11, 2617, 0|51, 5, 1, 4000, 0|37, 5, 1, 6102, 0|75, 5, 14, 3175, 0|53, 5, 1, 810, 0|17, 5, 1, 4680, 0|70, 5, 1, 2753, 0|9, 5, 1, 7008, 0|33, 5, 14, 2113, 0|52, 5, 1, 6090, 0|33, 5, 12, 3170, 0|10, 5, 2, 6102, 0|10, 5, 1, 6712, 0|53, 3, 9, 2600, 0|32, 5, 1, 3550, 0|32, 6, 1, 6155, 0|6, 6, 1, 3179, 0|64, 6, 1, 6155, 0|15, 6, 1, 6109, 0|20, 6, 1, 3083, 0|68, 6, 5, 6714, 0|33, 6, 1, 2114, 0|10, 6, 1, 6712, 0|23, 7, 1, 2113, 0|23, 7, 1, 2113, 0|76, 7, 1, 6105, 0|69, 7, 1, 2116, 0|44, 7, 14, 6102, 0|19, 7, 1, 2127, 0|20, 7, 1, 3179, 0|52, 7, 1, 6090, 0|53, 47, 11, 3175, 0|2, 8, 1, 3083, 0|32, 8, 1, 6090, 0|64, 8, 1, 2609, 0|1, 8, 7, 3012, 0|44, 8, 1, 4029, 0|33, 8, 1, 3166, 0|10, 52, 7, 3400, 0|44, 8, 2, 3132, 0|69, 8, 3, 3170, 0|37, 9, 1, 6102, 0|53, 9, 2, 2113, 0|68, 9, 1, 4870, 0|2, 9, 6, 2116, 0|73, 9, 1, 2116, 0|29, 9, 10, 5095, 0|68, 9, 1, 6090, 0|17, 14, 2, 6432, 0|78, 9, 1, 6432, 0|68, 9, 1, 6150, 0|32, 9, 1, 6150, 0|33, 9, 1, 6109, 0|33, 9, 5, 6109, 0|15, 9, 1, 6431, 0|10, 9, 2, 4680, 0|18, 10, 1, 6167, 0|68, 1, 0, 6167, 0|23, 10, 1, 2116, 0|15, 10, 1, 2671, 0|32, 10, 1, 6150, 0|15, 10, 1, 6440, 0|9, 10, 1, 3052, 0|23, 10, 7, 5000, 0|29, 10, 1, 6167, 0|24, 10, 14, 3179, 0|49, 10, 1, 3179, 0|21, 10, 14, 2164, 0|10, 10, 1, 4207, 0|10, 11, 2, 6710, 0|2, 23, 5, 4014, 0|78, 12, 1, 3004, 0|76, 12, 2, 2609, 0|15, 12, 1, 4719, 0|29, 12, 1, 3170, 0|23, 12, 3, 2086, 0|69, 12, 1, 4102, 0|33, 12, 1, 2113, 0|7, 2, 2, 3168, 0|63, 12, 7, 6102, 0|15, 12, 1, 810, 0|7, 12, 3, 2611, 0|2, 12, 1, 6102, 0|9, 13, 1, 2113, 0|32, 13, 2, 6155, 0|76, 13, 4, 3207, 0|6, 13, 1, 2067, 0|76, 13, 11, 3179, 0|23, 13, 1, 3084, 0|32, 13, 1, 2164, 0|76, 13, 1, 2113, 0|33, 13, 1, 7009, 0|10, 14, 2, 2067, 0|68, 14, 14, 6090, 0|64, 18, 13, 6155, 0|33, 14, 6, 6109, 0|10, 14, 1, 4811, 0|37, 14, 1, 3168, 0|64, 14, 14, 5000, 0|33, 14, 1, 4006, 0|73, 14, 1, 9053, 1|23, 14, 1, 3004, 0|33, 14, 1, 5013, 0|54, 52, 0, 5042, 0|52, 14, 1, 6155, 0|23, 15, 1, 5095, 0|15, 15, 1, 6430, 0|17, 15, 1, 6430, 0|2, 15, 1, 3052, 0|68, 15, 5, 5095, 0|33, 15, 1, 2015, 0|63, 15, 1, 2308, 0|21, 15, 1, 5064, 0|69, 15, 1, 2113, 0|52, 15, 1, 3179, 0|20, 16, 4, 6154, 0|17, 16, 1, 2285, 0|68, 16, 1, 6090, 0|68, 16, 1, 6090, 0|76, 16, 1, 6102, 0|2, 16, 1, 3284, 0|40, 16, 3, 4102, 0|52, 16, 1, 6090, 0|23, 16, 1, 2308, 0|32, 16, 1, 3010, 0|23, 12, 4, 5095, 0|64, 17, 1, 3207, 0|32, 17, 2, 3207, 0|23, 17, 1, 6102, 0|23, 17, 5, 6009, 0|39, 17, 10, 3136, 0|53, 17, 1, 4006, 0|51, 17, 5, 2234, 0|9, 17, 2, 3052, 0|40, 17, 1, 3122, 0|52, 17, 2, 4825, 0|20, 17, 8, 3175, 0|24, 17, 14, 6009, 0|15, 18, 1, 6430, 0|71, 18, 1, 3050, 0|10, 11, 12, 6712, 0|52, 18, 1, 3936, 0|68, 19, 1, 2113, 0|69, 20, 14, 6102, 0|69, 20, 1, 3170, 0|6, 20, 10, 3171, 0|69, 20, 1, 3170, 0|53, 20, 1, 810, 0|10, 20, 1, 3170, 0|48, 20, 1, 3061, 0|10, 20, 2, 3170, 0|10, 20, 1, 2036, 0|48, 20, 1, 6167, 0|53, 20, 1, 6009, 0|33, 20, 1, 6109, 0|65, 5, 12, 2145, 0|15, 20, 1, 6430, 0|33, 20, 1, 2015, 0|2, 20, 1, 6102, 0|52, 20, 1, 3171, 0|73, 20, 1, 3010, 0|16, 20, 1, 2835, 0|68, 21, 1, 3170, 0|32, 21, 1, 6150, 0|18, 16, 12, 2052, 0|76, 21, 1, 2113, 0|2, 21, 1, 6102, 0|25, 21, 1, 2611, 0|52, 21, 1, 3171, 0|21, 21, 1, 2164, 0|15, 21, 1, 6430, 0|44, 40, 1, 4053, 0|33, 21, 1, 6102, 0|10, 21, 1, 3047, 0|24, 15, 13, 4128, 0|24, 21, 14, 4128, 0|9, 21, 3, 2139, 0|68, 22, 1, 4053, 0|23, 22, 1, 2116, 0|44, 22, 3, 6154, 0|17, 22, 1, 3166, 0|32, 22, 2, 4108, 0|29, 22, 1, 3608, 0|15, 22, 1, 6431, 0|20, 22, 1, 3083, 0|32, 22, 1, 7005, 0|78, 22, 2, 2164, 0|2, 22, 14, 3047, 0|7, 22, 1, 2650, 0|74, 22, 1, 2116, 0|33, 1, 13, 3175, 0|20, 22, 14, 2114, 0|10, 22, 1, 3047, 0|15, 22, 2, 2671, 0|64, 23, 1, 2050, 0|15, 54, 13, 2870, 0|32, 23, 1, 6155, 0|76, 23, 14, 3207, 0|2, 23, 1, 3047, 0|33, 23, 1, 3170, 0|20, 23, 14, 2611, 0|20, 23, 1, 3175, 0|26, 23, 1, 3012, 0|21, 23, 2, 6102, 0|32, 24, 1, 2164, 0|32, 24, 1, 3207, 0|32, 24, 1, 6090, 0|40, 24, 1, 2007, 0|23, 17, 13, 3084, 0|65, 24, 1, 2000, 0|76, 24, 1, 2007, 0|52, 24, 1, 2800, 0|17, 24, 1, 6430, 0|10, 24, 2, 4680, 0|73, 24, 1, 2113, 0|25, 24, 1, 5031, 0|17, 24, 1, 4740, 0|52, 24, 1, 4053, 0|33, 24, 1, 4053, 0|68, 25, 6, 6090, 0|29, 25, 1, 3050, 0|10, 25, 1, 6710, 0|20, 26, 13, 2113, 0|10, 26, 1, 6102, 0|37, 28, 6, 6102, 0|78, 15, 1, 2115, 0|23, 28, 1, 2116, 0|76, 5, 8, 2141, 0|32, 28, 1, 3207, 0|1, 28, 1, 3052, 0|76, 28, 1, 6009, 0|9, 28, 14, 3052, 0|76, 28, 1, 4102, 0|33, 28, 1, 3842, 0|21, 28, 1, 2164, 0|33, 57, 2, 2067, 0|15, 28, 1, 6005, 0|21, 29, 4, 6102, 0|23, 29, 1, 2116, 0|76, 29, 9, 6009, 0|32, 29, 1, 6155, 0|74, 29, 1, 2036, 0|73, 29, 1, 3067, 0|48, 29, 1, 2681, 0|32, 30, 1, 4053, 0|9, 30, 6, 2113, 0|64, 30, 1, 3207, 0|68, 19, 12, 6150, 0|32, 30, 8, 4102, 0|34, 30, 1, 5064, 0|33, 30, 4, 6109, 0|33, 30, 4, 2113, 0|71, 30, 1, 4000, 0|20, 30, 2, 7008, 0|52, 30, 1, 2322, 0|73, 30, 1, 3048, 0|37, 30, 1, 7315, 0|33, 30, 2, 4108, 0|33, 30, 2, 4108, 0|54, 57, 11, 4102, 0|70, 30, 1, 2145, 0|7, 30, 2, 6102, 0|21, 30, 1, 3170, 0|20, 30, 1, 5064, 0|23, 30, 8, 4172, 0|21, 31, 1, 6102, 0|2, 31, 8, 4014, 0|32, 39, 5, 4870, 0|32, 31, 1, 4870, 0|34, 21, 1, 4014, 0|1, 31, 1, 2116, 0|32, 31, 1, 3179, 0|23, 31, 1, 3010, 0|76, 31, 14, 2113, 0|15, 31, 1, 6430, 0|2, 31, 1, 6102, 0|17, 31, 1, 6430, 0|44, 32, 7, 3175, 0|63, 31, 1, 2308, 0|10, 31, 2, 828, 0|73, 31, 14, 4014, 0|54, 31, 2, 4102, 0|54, 31, 3, 4102, 0|21, 31, 1, 5064, 0|21, 31, 3, 5064, 0|24, 31, 1, 2164, 0|20, 31, 5, 3175, 0|17, 32, 1, 6635, 0|15, 32, 1, 6646, 0|48, 32, 1, 6105, 0|2, 33, 1, 3067, 0|37, 33, 1, 6102, 0|39, 5, 7, 6009, 0|34, 33, 1, 2760, 0|34, 33, 1, 4014, 0|64, 33, 2, 810, 0|1, 33, 4, 3175, 0|53, 33, 1, 828, 0|15, 33, 1, 6437, 0|19, 33, 1, 3020, 0|19, 33, 1, 2322, 0|18, 33, 1, 2285, 0|47, 33, 1, 6102, 0|76, 33, 2, 2141, 0|68, 33, 2, 2351, 0|7, 33, 2, 6008, 0|20, 33, 1, 2113, 0|9, 33, 2, 4029, 0|18, 33, 1, 6501, 0|15, 33, 1, 6433, 0|47, 33, 1, 4220, 0|78, 33, 1, 2304, 0|44, 33, 1, 2141, 0|10, 41, 10, 6167, 0|32, 33, 1, 2146, 0|10, 33, 1, 2145, 0|33, 33, 1, 4006, 0|44, 33, 3, 6102, 0|10, 58, 11, 2148, 0|10, 33, 1, 6712, 0|40, 33, 5, 4006, 0|73, 33, 2, 2308, 0|23, 33, 1, 2308, 0|23, 34, 1, 2650, 0|9, 34, 1, 2113, 0|64, 34, 1, 2050, 0|2, 34, 1, 6167, 0|15, 34, 1, 6440, 0|24, 34, 1, 6008, 0|10, 34, 4, 6167, 0|7, 34, 1, 3284, 0|10, 34, 1, 2145, 0|33, 34, 1, 6109, 0|52, 34, 1, 6109, 0|9, 34, 3, 2650, 0|49, 34, 4, 3800, 0|9, 34, 14, 6009, 0|33, 34, 1, 2114, 0|17, 34, 1, 6090, 0|15, 34, 1, 6430, 0|9, 35, 1, 5064, 0|68, 35, 1, 2164, 0|76, 35, 1, 2000, 0|32, 35, 1, 6090, 0|6, 35, 14, 2113, 0|23, 35, 2, 6012, 1|44, 12, 6, 4029, 0|76, 38, 8, 2113, 0|32, 35, 2, 4014, 0|68, 35, 1, 6090, 0|20, 35, 14, 2141, 0|40, 35, 2, 5000, 0|21, 35, 1, 2164, 0|63, 35, 14, 2308, 0|9, 35, 1, 2601, 0|9, 35, 3, 2601, 0|36, 35, 1, 7315, 0|37, 36, 1, 6102, 0|76, 36, 1, 2000, 0|68, 36, 1, 4825, 0|32, 36, 1, 3012, 0|68, 36, 2, 7307, 0|51, 36, 3, 3052, 0|2, 36, 1, 3173, 0|44, 36, 4, 5064, 0|24, 36, 1, 6021, 0|48, 36, 8, 5331, 0|68, 37, 1, 4053, 0|6, 37, 1, 3179, 0|68, 37, 5, 6090, 0|32, 37, 1, 4102, 0|39, 37, 1, 3085, 0|10, 37, 2, 6167, 0|76, 37, 1, 2141, 0|47, 37, 5, 4072, 0|33, 37, 1, 3031, 0|44, 37, 1, 6102, 0|44, 37, 14, 2067, 0|2, 37, 14, 2148, 0|33, 37, 2, 3842, 0|52, 37, 4, 2015, 0|52, 27, 6, 3171, 0|15, 37, 1, 6430, 0|10, 37, 1, 3006, 0|24, 37, 1, 3179, 0|21, 37, 1, 4178, 0|10, 38, 1, 2164, 0|7, 38, 1, 4014, 0|64, 38, 1, 2050, 0|34, 38, 1, 2116, 0|6, 17, 8, 2067, 0|76, 38, 1, 2067, 0|23, 38, 1, 3084, 0|48, 38, 14, 6105, 0|36, 38, 2, 3284, 0|36, 38, 1, 3284, 0|9, 38, 1, 2010, 0|33, 38, 9, 4053, 0|63, 38, 4, 2111, 0|9, 38, 14, 4172, 0|21, 38, 1, 3052, 0|24, 38, 14, 2067, 0|15, 39, 1, 6646, 0|15, 39, 1, 6430, 0|34, 40, 1, 4014, 0|68, 23, 5, 6102, 0|1, 40, 1, 3175, 0|42, 40, 14, 3085, 0|7, 40, 2, 6008, 0|20, 40, 7, 6102, 0|9, 40, 2, 6102, 0|9, 40, 2, 2308, 0|20, 41, 1, 3207, 0|39, 41, 1, 2067, 0|20, 41, 1, 2304, 0|17, 41, 1, 4029, 0|6, 41, 1, 3084, 0|2, 41, 2, 6008, 0|69, 41, 1, 5106, 0|23, 41, 11, 5064, 0|36, 41, 3, 3284, 0|36, 41, 2, 3284, 0|36, 41, 1, 3284, 0|15, 41, 1, 6359, 0|80, 41, 1, 5005, 0|78, 41, 4, 2145, 0|78, 41, 4, 2145, 0|73, 41, 1, 3083, 0|24, 41, 14, 6009, 0|9, 42, 1, 5064, 0|10, 42, 1, 2164, 0|32, 42, 8, 6155, 0|76, 42, 14, 2067, 0|10, 42, 1, 6102, 0|68, 42, 1, 2170, 0|32, 31, 10, 2164, 0|68, 42, 1, 3043, 0|33, 42, 8, 2143, 0|25, 42, 1, 2611, 0|23, 30, 13, 4008, 0|78, 42, 2, 3175, 0|64, 42, 2, 5000, 0|73, 42, 5, 3048, 0|10, 42, 7, 2601, 0|49, 42, 1, 2145, 0|49, 42, 7, 2145, 0|20, 42, 1, 3175, 0|21, 42, 1, 3010, 0|68, 50, 7, 3168, 0|10, 43, 1, 6105, 0|68, 43, 1, 4108, 0|20, 43, 1, 2113, 0|33, 43, 1, 4007, 0|73, 43, 1, 3067, 0|71, 43, 1, 2113, 0|52, 43, 1, 4825, 0|40, 43, 1, 4006, 0|16, 43, 1, 4555, 0|32, 44, 2, 2164, 0|1, 44, 14, 6167, 0|1, 44, 1, 3170, 0|76, 44, 1, 6102, 0|1, 44, 6, 4077, 0|34, 44, 1, 6009, 0|23, 44, 3, 2006, 0|52, 44, 1, 2164, 0|44, 44, 4, 3175, 0|20, 44, 1, 2308, 0|6, 54, 8, 5000, 0|32, 45, 1, 4053, 0|45, 45, 1, 3168, 0|68, 45, 1, 6090, 0|1, 45, 1, 3179, 0|20, 45, 3, 6102, 0|25, 45, 1, 2320, 0|7, 45, 1, 3168, 0|25, 45, 1, 2611, 0|15, 45, 1, 6430, 0|33, 45, 14, 6105, 0|73, 45, 2, 2070, 0|73, 45, 10, 2070, 0|44, 45, 2, 5064, 0|9, 45, 2, 4172, 0|20, 45, 1, 3000, 0|10, 46, 1, 6712, 0|1, 47, 11, 3084, 0|1, 47, 1, 4014, 0|18, 47, 4, 6102, 0|45, 47, 1, 3175, 0|39, 47, 4, 6102, 0|78, 47, 1, 4504, 0|71, 47, 1, 2113, 0|17, 47, 1, 3026, 0|10, 48, 1, 2141, 0|15, 48, 1, 6430, 0|32, 48, 1, 6090, 0|9, 48, 1, 3136, 0|48, 36, 12, 2128, 0|9, 48, 1, 3052, 0|6, 42, 11, 3085, 0|32, 48, 1, 6109, 0|20, 48, 14, 3051, 0|73, 48, 1, 3175, 0|23, 49, 1, 2113, 0|68, 49, 1, 2234, 0|76, 49, 1, 2067, 0|10, 24, 6, 3284, 0|17, 49, 1, 2650, 0|1, 49, 1, 2066, 0|33, 49, 1, 6109, 0|33, 49, 1, 6109, 0|10, 49, 1, 3136, 0|23, 49, 1, 2015, 0|23, 49, 1, 6106, 0|9, 49, 1, 6102, 0|21, 49, 1, 2113, 0|68, 49, 1, 5000, 0|76, 49, 1, 5000, 0|9, 49, 1, 2010, 0|10, 48, 12, 6712, 0|44, 49, 1, 3179, 0|24, 49, 2, 3175, 0|24, 49, 1, 3171, 0|21, 50, 3, 6102, 0|68, 50, 2, 2015, 0|10, 50, 5, 6154, 0|1, 50, 9, 4072, 0|9, 50, 7, 3004, 0|33, 50, 1, 6065, 0|10, 9, 9, 3150, 0|15, 23, 1, 4805, 0|15, 50, 1, 6430, 0|44, 50, 12, 4172, 0|10, 50, 14, 5015, 0|23, 4, 11, 2650, 0|19, 17, 1, 2340, 0|33, 2, 8, 6109, 0|33, 51, 1, 3171, 0|36, 51, 2, 3284, 0|63, 51, 14, 6102, 0|33, 51, 4, 2114, 0|10, 51, 14, 5015, 0|22, 51, 5, 3168, 0|10, 52, 14, 4053, 0|64, 52, 1, 3207, 0|76, 52, 1, 2067, 0|32, 56, 8, 6090, 0|20, 52, 1, 3083, 0|23, 52, 2, 5000, 0|10, 52, 11, 5106, 0|24, 52, 14, 4301, 0|68, 21, 5, 2164, 0|48, 52, 1, 6167, 0|10, 53, 7, 6008, 0|18, 54, 1, 6172, 0|45, 54, 1, 3175, 0|44, 54, 2, 4740, 0|71, 54, 1, 3000, 0|68, 54, 1, 6151, 0|68, 54, 1, 6151, 0|33, 54, 1, 2067, 0|37, 55, 1, 6102, 0|2, 55, 1, 6102, 0|68, 55, 1, 6090, 0|36, 55, 2, 3284, 0|36, 55, 1, 3284, 0|78, 6, 11, 3052, 0|70, 55, 1, 2753, 0|79, 55, 9, 2020, 0|52, 55, 1, 4680, 0|33, 32, 6, 6090, 0|21, 55, 1, 2164, 0|10, 56, 1, 3018, 0|9, 56, 2, 2601, 0|68, 56, 1, 6090, 0|39, 31, 1, 3085, 0|6, 56, 8, 5064, 0|15, 3, 5, 6433, 0|10, 56, 1, 4811, 0|1, 56, 1, 2066, 0|2, 56, 1, 2148, 0|17, 56, 1, 2308, 0|33, 56, 1, 6102, 0|33, 56, 1, 6102, 0|68, 57, 1, 6167, 0|23, 57, 14, 2164, 0|1, 57, 1, 3084, 0|68, 57, 2, 2015, 0|17, 57, 1, 6090, 0|44, 57, 1, 6009, 0|33, 57, 2, 6109, 0|7, 57, 1, 3168, 0|23, 57, 11, 2113, 0|39, 57, 2, 6102, 0|37, 57, 14, 5031, 0|25, 57, 11, 5031, 0|24, 57, 2, 3179, 0|63, 57, 1, 3166, 0|20, 58, 1, 6154, 0|69, 58, 14, 2067, 0|9, 58, 4, 5064, 0|1, 58, 1, 2070, 0|68, 58, 4, 4108, 0|6, 58, 1, 3085, 0|69, 58, 5, 5106, 0|64, 58, 1, 6110, 0|21, 58, 1, 2113, 0|23, 21, 8, 5000, 0|33, 49, 9, 2143, 0|9, 58, 1, 2010, 0|52, 58, 1, 4825, 0|9, 58, 14, 3004, 0|9, 58, 2, 3004, 0|37, 58, 1, 7315, 0|33, 58, 4, 3173, 0|39, 58, 5, 3051, 0|30, 58, 3, 2170, 0|76, 59, 2, 2000, 0|23, 59, 1, 4014, 0|76, 59, 14, 3207, 0|39, 58, 6, 2067, 0|15, 59, 1, 6430, 0|53, 59, 1, 3052, 0|76, 59, 1, 2601, 0|44, 59, 1, 2052, 0|17, 59, 1, 6430, 0|54, 59, 2, 5005, 0|21, 59, 1, 3175, 0|23, 59, 1, 2308, 0|29, 59, 1, 3053, 0|43, 59, 14, 3004, 0|];